202
2670
144
0 1
0 3
0 7
0 10
0 54
0 87
0 100
0 102
1 3
1 7
1 10
1 14
1 18
1 19
1 21
1 22
1 26
1 30
1 33
1 36
1 54
1 87
1 100
1 102
2 4
2 6
2 8
2 9
2 11
2 16
2 17
2 20
2 31
2 37
2 47
2 48
2 74
2 75
2 103
2 106
2 115
2 120
2 167
2 180
3 7
3 10
3 14
3 18
3 19
3 21
3 22
3 26
3 29
3 30
3 33
3 36
3 43
3 44
3 46
3 49
3 51
3 54
3 59
3 63
3 73
3 87
3 100
3 102
3 116
3 119
3 134
3 150
3 152
3 165
3 178
3 192
3 194
4 6
4 8
4 9
4 11
4 16
4 17
4 20
4 31
4 37
4 47
4 48
4 49
4 63
4 75
4 92
4 95
4 98
4 104
4 107
4 108
4 109
5 15
5 23
5 27
5 28
5 29
5 32
5 34
5 35
5 38
5 39
5 41
5 51
5 61
5 62
5 74
5 76
5 77
5 89
5 93
5 101
5 105
5 110
5 129
5 177
5 183
5 198
6 8
6 9
6 11
6 16
6 17
6 20
6 31
6 37
6 47
6 48
6 49
6 50
6 63
6 75
6 92
6 95
6 98
6 104
6 107
6 108
6 109
6 113
6 117
6 118
6 119
6 122
6 155
6 156
6 176
6 179
6 182
6 199
7 10
7 14
7 18
7 19
7 21
7 22
7 26
7 30
7 33
7 36
7 45
7 50
7 52
7 54
7 64
7 66
7 68
7 79
7 81
7 87
7 94
7 100
7 102
7 153
7 154
7 156
8 9
8 11
8 16
8 17
8 20
8 31
8 37
8 47
8 48
8 49
8 63
8 75
8 92
8 95
8 98
8 104
8 107
8 108
8 109
8 112
8 114
8 116
8 124
8 132
8 138
8 139
8 143
8 187
9 11
9 16
9 17
9 20
9 31
9 37
9 47
9 48
9 49
9 63
9 75
9 92
9 95
9 98
9 104
9 107
9 108
9 109
9 123
9 125
9 133
9 140
9 142
9 173
10 14
10 18
10 19
10 21
10 22
10 26
10 30
10 33
10 36
10 45
10 50
10 52
10 54
10 64
10 66
10 68
10 79
10 81
10 87
10 94
10 100
10 102
10 143
10 144
10 148
10 151
10 155
10 157
10 158
11 16
11 17
11 20
11 31
11 37
11 47
11 48
11 49
11 63
11 75
11 92
11 95
11 98
11 104
11 107
11 108
11 109
11 123
11 125
11 133
11 140
11 142
11 173
11 175
11 178
11 183
11 184
11 185
11 186
12 16
12 17
12 20
12 40
12 41
12 47
12 48
12 85
12 145
12 160
13 15
13 23
13 42
13 147
13 161
14 18
14 19
14 21
14 22
14 26
14 30
14 33
14 36
14 43
14 44
14 46
14 49
14 51
14 102
14 116
14 150
14 152
14 165
14 178
14 192
15 23
15 27
15 28
15 29
15 32
15 34
15 35
15 38
15 39
15 42
15 89
15 105
15 110
15 147
15 161
16 17
16 20
16 31
16 37
16 40
16 41
16 47
16 48
16 74
16 75
16 85
16 103
16 106
16 115
16 120
16 145
16 160
16 167
16 180
17 20
17 31
17 37
17 40
17 41
17 47
17 48
17 75
17 85
17 145
17 160
18 19
18 21
18 22
18 26
18 29
18 30
18 33
18 36
18 43
18 44
18 46
18 49
18 51
18 54
18 59
18 63
18 73
18 84
18 87
18 89
18 91
18 92
18 95
18 98
18 102
18 116
18 119
18 134
18 150
18 152
18 165
18 178
18 192
18 194
19 21
19 22
19 26
19 30
19 33
19 36
19 45
19 50
19 52
19 60
19 64
19 66
19 68
19 79
19 81
19 94
19 102
19 153
19 154
19 156
19 159
19 167
19 168
19 169
19 173
19 197
19 199
20 31
20 37
20 40
20 41
20 47
20 48
20 49
20 63
20 75
20 85
20 92
20 95
20 98
20 104
20 107
20 108
20 109
20 145
20 160
21 22
21 26
21 30
21 33
21 36
21 45
21 50
21 52
21 64
21 66
21 68
21 79
21 81
21 94
21 102
21 153
21 154
21 156
22 23
22 26
22 30
22 33
22 36
22 38
22 45
22 50
22 52
22 64
22 66
22 67
22 68
22 79
22 81
22 82
22 94
22 97
22 102
22 141
22 143
22 144
22 148
22 151
22 155
22 157
22 158
22 172
22 195
22 196
22 201
23 27
23 28
23 29
23 32
23 34
23 35
23 38
23 39
23 42
23 60
23 65
23 66
23 67
23 70
23 78
23 80
23 82
23 83
23 89
23 96
23 97
23 99
23 105
23 110
23 137
23 141
23 147
23 155
23 157
23 161
23 172
23 195
23 196
23 201
24 31
24 37
24 53
24 69
24 75
24 126
24 144
24 175
24 188
25 26
25 30
25 33
25 36
25 55
25 128
26 30
26 33
26 36
26 55
26 102
26 128
27 28
27 29
27 32
27 34
27 35
27 38
27 39
27 71
27 72
27 73
27 79
27 81
27 89
27 105
27 110
27 117
27 119
27 131
27 134
27 162
27 164
27 179
27 190
27 194
28 29
28 32
28 34
28 35
28 38
28 39
28 89
28 105
28 110
29 30
29 32
29 34
29 35
29 38
29 39
29 46
29 49
29 54
29 59
29 63
29 71
29 72
29 73
29 79
29 81
29 89
29 105
29 110
29 117
29 119
29 131
29 134
29 152
29 162
29 164
29 179
29 190
29 194
30 33
30 36
30 43
30 44
30 46
30 49
30 51
30 54
30 55
30 59
30 63
30 73
30 102
30 116
30 119
30 128
30 134
30 150
30 152
30 165
30 178
30 192
30 194
31 37
31 47
31 48
31 53
31 69
31 75
31 126
31 144
31 175
31 188
32 34
32 35
32 38
32 39
32 51
32 61
32 62
32 74
32 76
32 77
32 89
32 93
32 105
32 110
32 183
32 198
33 36
33 45
33 50
33 52
33 55
33 64
33 66
33 68
33 79
33 81
33 94
33 102
33 128
34 35
34 38
34 39
34 60
34 65
34 67
34 70
34 78
34 80
34 82
34 83
34 89
34 96
34 97
34 99
34 105
34 110
34 123
34 137
34 141
34 171
34 178
34 184
34 191
34 192
34 200
35 38
35 39
35 60
35 65
35 67
35 70
35 78
35 80
35 82
35 83
35 89
35 96
35 97
35 99
35 105
35 110
35 137
35 141
35 185
35 197
35 199
36 45
36 50
36 52
36 55
36 64
36 66
36 68
36 79
36 81
36 94
36 102
36 128
36 153
36 154
36 156
37 47
37 48
37 49
37 53
37 63
37 69
37 75
37 92
37 95
37 98
37 104
37 107
37 108
37 109
37 123
37 125
37 126
37 133
37 140
37 142
37 144
37 173
37 175
37 188
38 39
38 60
38 65
38 66
38 67
38 70
38 78
38 80
38 82
38 83
38 89
38 96
38 97
38 99
38 105
38 110
38 137
38 141
38 155
38 157
38 172
38 195
38 196
38 201
39 60
39 65
39 67
39 70
39 78
39 80
39 82
39 83
39 89
39 96
39 97
39 99
39 105
39 110
39 137
39 141
40 41
40 42
40 47
40 48
40 85
40 86
40 112
40 145
40 146
40 147
40 160
40 161
41 42
41 47
41 48
41 85
41 86
41 89
41 101
41 105
41 110
41 112
41 129
41 145
41 146
41 147
41 160
41 161
41 177
42 47
42 48
42 85
42 86
42 112
42 145
42 146
42 147
42 160
42 161
43 44
43 46
43 49
43 51
43 116
43 150
43 152
43 165
43 178
43 192
44 46
44 49
44 51
44 53
44 55
44 56
44 58
44 60
44 61
44 62
44 65
44 67
44 90
44 93
44 96
44 97
44 99
44 116
44 150
44 152
44 165
44 178
44 192
45 50
45 52
45 64
45 66
45 68
45 79
45 81
45 94
45 132
45 133
45 143
45 144
45 148
45 151
45 155
45 157
45 158
45 162
45 164
45 166
45 175
45 183
45 188
45 189
45 190
45 193
45 194
45 198
46 49
46 51
46 54
46 59
46 63
46 73
46 116
46 119
46 134
46 150
46 152
46 165
46 178
46 192
46 194
47 48
47 74
47 75
47 85
47 86
47 103
47 106
47 112
47 115
47 120
47 145
47 146
47 147
47 160
47 161
47 167
47 180
48 49
48 63
48 75
48 85
48 86
48 92
48 95
48 98
48 104
48 107
48 108
48 109
48 112
48 145
48 146
48 147
48 160
48 161
49 51
49 54
49 59
49 63
49 73
49 84
49 87
49 89
49 91
49 92
49 95
49 98
49 104
49 107
49 108
49 109
49 116
49 119
49 134
49 150
49 152
49 165
49 178
49 192
49 194
50 52
50 60
50 63
50 64
50 66
50 68
50 79
50 81
50 94
50 104
50 113
50 117
50 118
50 119
50 122
50 153
50 154
50 155
50 156
50 159
50 167
50 168
50 169
50 173
50 176
50 179
50 182
50 197
50 199
51 53
51 55
51 56
51 58
51 60
51 61
51 62
51 65
51 67
51 74
51 76
51 77
51 90
51 93
51 96
51 97
51 99
51 116
51 150
51 152
51 165
51 178
51 183
51 192
51 198
52 64
52 66
52 68
52 79
52 81
52 94
52 153
52 154
52 156
53 55
53 56
53 58
53 60
53 61
53 62
53 65
53 67
53 69
53 75
53 90
53 93
53 96
53 97
53 99
53 113
53 126
53 128
53 130
53 144
53 148
53 175
53 176
53 188
53 189
53 192
54 59
54 63
54 73
54 84
54 87
54 89
54 91
54 92
54 95
54 98
54 100
54 101
54 102
54 105
54 110
54 111
54 119
54 127
54 129
54 134
54 152
54 159
54 174
54 177
54 194
55 56
55 58
55 60
55 61
55 62
55 65
55 67
55 69
55 75
55 90
55 93
55 96
55 97
55 99
55 113
55 126
55 128
55 130
55 144
55 148
55 175
55 176
55 188
55 189
55 192
56 58
56 60
56 61
56 62
56 65
56 67
56 69
56 75
56 90
56 93
56 96
56 97
56 99
56 113
56 126
56 128
56 130
56 144
56 148
56 175
56 176
56 188
56 189
56 192
57 64
57 66
57 68
57 71
57 79
57 81
57 85
57 86
57 88
57 94
57 115
57 162
57 190
58 60
58 61
58 62
58 65
58 67
58 90
58 93
58 96
58 97
58 99
58 192
59 63
59 73
59 119
59 134
59 152
59 194
60 61
60 62
60 65
60 67
60 70
60 78
60 80
60 82
60 83
60 90
60 93
60 96
60 97
60 99
60 110
60 137
60 141
60 153
60 154
60 156
60 159
60 167
60 168
60 169
60 173
60 185
60 192
60 197
60 199
61 62
61 65
61 67
61 74
61 76
61 77
61 90
61 93
61 96
61 97
61 99
61 127
61 129
61 132
61 133
61 135
61 136
61 138
61 139
61 140
61 142
61 143
61 183
61 192
61 198
62 65
62 67
62 74
62 76
62 77
62 90
62 93
62 96
62 97
62 99
62 183
62 192
62 198
63 73
63 84
63 87
63 89
63 91
63 92
63 95
63 98
63 104
63 107
63 108
63 109
63 113
63 117
63 118
63 119
63 122
63 134
63 152
63 155
63 156
63 176
63 179
63 182
63 194
63 199
64 66
64 68
64 71
64 79
64 81
64 85
64 86
64 88
64 94
64 115
64 162
64 190
65 67
65 70
65 78
65 80
65 82
65 83
65 90
65 93
65 96
65 97
65 99
65 110
65 137
65 141
65 185
65 192
65 197
65 199
66 67
66 68
66 71
66 79
66 81
66 82
66 85
66 86
66 88
66 94
66 97
66 115
66 141
66 143
66 144
66 148
66 151
66 155
66 157
66 158
66 162
66 172
66 190
66 195
66 196
66 201
67 70
67 78
67 80
67 82
67 83
67 90
67 93
67 96
67 97
67 99
67 110
67 137
67 141
67 155
67 157
67 172
67 192
67 195
67 196
67 201
68 71
68 79
68 81
68 85
68 86
68 88
68 94
68 115
68 143
68 144
68 148
68 151
68 155
68 157
68 158
68 162
68 190
69 75
69 113
69 126
69 128
69 130
69 144
69 148
69 175
69 176
69 188
69 189
70 78
70 80
70 82
70 83
70 96
70 97
70 99
70 110
70 112
70 114
70 116
70 123
70 137
70 141
70 145
70 146
70 147
70 149
70 150
70 152
70 160
70 161
70 163
70 165
70 171
70 178
70 184
70 191
70 192
70 200
71 72
71 73
71 79
71 81
71 85
71 86
71 88
71 94
71 115
71 117
71 119
71 131
71 134
71 162
71 164
71 179
71 190
71 194
72 73
72 79
72 81
72 117
72 119
72 131
72 134
72 162
72 164
72 179
72 190
72 194
73 79
73 81
73 117
73 119
73 131
73 134
73 152
73 162
73 164
73 179
73 190
73 194
74 76
74 77
74 93
74 103
74 106
74 111
74 115
74 120
74 121
74 127
74 129
74 132
74 133
74 135
74 136
74 138
74 139
74 140
74 142
74 143
74 153
74 159
74 167
74 168
74 174
74 177
74 180
74 183
74 195
74 198
75 113
75 126
75 128
75 130
75 144
75 148
75 175
75 176
75 188
75 189
76 77
76 93
76 111
76 115
76 120
76 121
76 127
76 129
76 132
76 133
76 135
76 136
76 138
76 139
76 140
76 142
76 143
76 153
76 159
76 167
76 168
76 174
76 177
76 180
76 183
76 195
76 198
77 93
77 183
77 198
78 80
78 82
78 83
78 96
78 97
78 99
78 110
78 123
78 137
78 141
78 171
78 178
78 184
78 191
78 192
78 200
79 81
79 85
79 86
79 88
79 94
79 115
79 117
79 119
79 131
79 134
79 162
79 164
79 179
79 190
79 194
80 82
80 83
80 96
80 97
80 99
80 110
80 137
80 141
80 185
80 197
80 199
81 85
81 86
81 88
81 94
81 115
81 117
81 119
81 131
81 134
81 153
81 154
81 156
81 162
81 164
81 179
81 190
81 194
82 83
82 96
82 97
82 99
82 110
82 137
82 141
82 155
82 157
82 172
82 195
82 196
82 201
83 96
83 97
83 99
83 110
83 137
83 141
84 87
84 89
84 91
84 92
84 95
84 98
84 100
84 101
84 102
84 105
84 110
84 111
84 127
84 129
84 159
84 174
84 177
85 86
85 88
85 90
85 93
85 94
85 96
85 97
85 99
85 103
85 112
85 115
85 145
85 146
85 147
85 160
85 161
85 162
85 190
86 88
86 90
86 93
86 94
86 96
86 97
86 99
86 103
86 112
86 115
86 145
86 146
86 147
86 160
86 161
86 162
86 190
87 89
87 91
87 92
87 95
87 98
87 100
87 101
87 102
87 105
87 110
87 111
87 127
87 129
87 159
87 174
87 177
88 90
88 93
88 94
88 96
88 97
88 99
88 103
88 115
88 162
88 190
89 91
89 92
89 95
89 98
89 100
89 101
89 102
89 105
89 110
89 111
89 127
89 129
89 159
89 174
89 177
90 93
90 94
90 96
90 97
90 99
90 103
90 115
90 192
91 92
91 95
91 98
92 95
92 98
92 104
92 107
92 108
92 109
93 94
93 96
93 97
93 99
93 103
93 115
93 183
93 192
93 198
94 96
94 97
94 99
94 103
94 115
94 162
94 190
95 98
95 104
95 107
95 108
95 109
95 112
95 114
95 116
95 124
95 132
95 138
95 139
95 143
95 187
96 97
96 99
96 103
96 110
96 115
96 137
96 141
96 185
96 192
96 197
96 199
97 99
97 103
97 110
97 115
97 137
97 141
97 155
97 157
97 172
97 192
97 195
97 196
97 201
98 104
98 107
98 108
98 109
98 123
98 125
98 133
98 140
98 142
98 173
99 103
99 110
99 115
99 137
99 141
99 192
100 101
100 102
100 105
100 110
100 111
100 127
100 129
100 159
100 174
100 177
101 102
101 105
101 110
101 111
101 127
101 129
101 159
101 174
101 177
102 105
102 110
102 111
102 127
102 129
102 159
102 174
102 177
103 106
103 115
103 120
103 167
103 180
104 107
104 108
104 109
104 113
104 117
104 118
104 119
104 122
104 126
104 128
104 130
104 131
104 134
104 137
104 141
104 155
104 156
104 176
104 179
104 182
104 199
105 110
105 111
105 127
105 129
105 159
105 174
105 177
106 115
106 120
106 167
106 180
107 108
107 109
108 109
108 123
108 125
108 133
108 140
108 142
108 173
109 112
109 114
109 116
109 124
109 132
109 138
109 139
109 143
109 162
109 164
109 166
109 171
109 172
109 187
110 111
110 127
110 129
110 137
110 141
110 159
110 174
110 177
111 115
111 120
111 121
111 127
111 129
111 135
111 153
111 159
111 167
111 168
111 174
111 177
111 180
111 195
112 114
112 116
112 124
112 132
112 138
112 139
112 143
112 145
112 146
112 147
112 149
112 150
112 152
112 160
112 161
112 163
112 165
112 170
112 178
112 187
112 191
112 192
113 117
113 118
113 119
113 122
113 126
113 128
113 130
113 131
113 134
113 137
113 141
113 144
113 148
113 155
113 156
113 175
113 176
113 179
113 182
113 188
113 189
113 199
114 116
114 124
114 132
114 138
114 139
114 143
114 145
114 146
114 147
114 149
114 150
114 152
114 160
114 161
114 163
114 165
114 170
114 178
114 187
114 191
114 192
115 120
115 121
115 127
115 129
115 135
115 153
115 159
115 162
115 167
115 168
115 174
115 177
115 180
115 190
115 195
116 124
116 132
116 138
116 139
116 143
116 145
116 146
116 147
116 149
116 150
116 152
116 160
116 161
116 163
116 165
116 170
116 178
116 187
116 191
116 192
117 118
117 119
117 122
117 126
117 128
117 130
117 131
117 134
117 137
117 141
117 155
117 156
117 162
117 164
117 176
117 179
117 182
117 190
117 194
117 199
118 119
118 122
118 126
118 128
118 130
118 131
118 134
118 137
118 141
118 155
118 156
118 176
118 179
118 182
118 199
119 122
119 126
119 128
119 130
119 131
119 134
119 137
119 141
119 152
119 155
119 156
119 162
119 164
119 176
119 179
119 182
119 190
119 194
119 199
120 121
120 127
120 129
120 135
120 153
120 159
120 167
120 168
120 174
120 177
120 180
120 195
121 127
121 129
121 135
121 153
121 159
121 167
121 168
121 174
121 177
121 180
121 195
122 155
122 156
122 176
122 179
122 182
122 199
123 125
123 133
123 137
123 140
123 142
123 171
123 173
123 175
123 178
123 183
123 184
123 185
123 186
123 191
123 192
123 200
124 132
124 138
124 139
124 143
124 187
125 133
125 140
125 142
125 173
126 128
126 130
126 131
126 134
126 137
126 141
126 144
126 148
126 175
126 176
126 179
126 188
126 189
127 129
127 132
127 133
127 135
127 136
127 138
127 139
127 140
127 142
127 143
127 153
127 159
127 167
127 168
127 174
127 177
127 180
127 195
128 130
128 131
128 134
128 137
128 141
128 144
128 148
128 175
128 176
128 179
128 188
128 189
129 132
129 133
129 135
129 136
129 138
129 139
129 140
129 142
129 143
129 153
129 159
129 167
129 168
129 174
129 177
129 180
129 195
130 131
130 134
130 137
130 141
130 144
130 148
130 175
130 176
130 179
130 188
130 189
131 134
131 137
131 141
131 162
131 164
131 176
131 179
131 190
131 194
132 133
132 135
132 136
132 138
132 139
132 140
132 142
132 143
132 144
132 148
132 151
132 162
132 164
132 166
132 171
132 172
132 175
132 183
132 187
132 188
132 189
132 190
132 193
132 194
132 198
133 135
133 136
133 138
133 139
133 140
133 142
133 143
133 144
133 148
133 151
133 162
133 164
133 166
133 173
133 175
133 178
133 183
133 184
133 185
133 186
133 188
133 189
133 190
133 193
133 194
133 198
134 137
134 141
134 152
134 162
134 164
134 176
134 179
134 190
134 194
135 136
135 138
135 139
135 140
135 142
135 143
135 153
135 159
135 167
135 168
135 174
135 177
135 180
135 195
136 138
136 139
136 140
136 142
136 143
137 141
137 171
137 176
137 178
137 179
137 184
137 191
137 192
137 200
138 139
138 140
138 142
138 143
138 160
138 161
138 163
138 165
138 170
138 187
139 140
139 142
139 143
139 187
140 142
140 143
140 173
141 155
141 157
141 172
141 176
141 179
141 195
141 196
141 201
142 143
142 173
142 175
142 178
142 183
142 184
142 185
142 186
143 144
143 148
143 151
143 155
143 157
143 158
143 160
143 161
143 163
143 165
143 170
143 187
144 148
144 151
144 155
144 157
144 158
144 162
144 164
144 166
144 175
144 176
144 183
144 188
144 189
144 190
144 193
144 194
144 198
145 146
145 147
145 149
145 150
145 152
145 160
145 161
145 163
145 165
145 178
145 191
145 192
146 147
146 149
146 150
146 152
146 160
146 161
146 163
146 165
146 178
146 191
146 192
147 149
147 150
147 152
147 160
147 161
147 163
147 165
147 178
147 191
147 192
148 151
148 155
148 157
148 158
148 162
148 164
148 166
148 175
148 176
148 183
148 188
148 189
148 190
148 193
148 194
148 198
149 150
149 152
149 160
149 161
149 163
149 165
149 178
149 191
149 192
150 152
150 160
150 161
150 163
150 165
150 178
150 191
150 192
151 155
151 157
151 158
151 162
151 164
151 166
151 175
151 183
151 188
151 189
151 190
151 193
151 194
151 198
152 160
152 161
152 163
152 165
152 178
152 191
152 192
152 194
153 154
153 156
153 159
153 167
153 168
153 169
153 173
153 174
153 177
153 180
153 195
153 197
153 199
154 156
154 159
154 167
154 168
154 169
154 173
154 197
154 199
155 156
155 157
155 158
155 172
155 174
155 176
155 177
155 179
155 180
155 181
155 182
155 187
155 195
155 196
155 199
155 201
156 159
156 167
156 168
156 169
156 173
156 176
156 179
156 182
156 197
156 199
157 158
157 172
157 195
157 196
157 201
159 167
159 168
159 169
159 173
159 174
159 177
159 180
159 195
159 197
159 199
160 161
160 163
160 165
160 170
160 178
160 191
160 192
161 163
161 165
161 170
161 178
161 191
161 192
162 164
162 166
162 171
162 172
162 175
162 179
162 183
162 187
162 188
162 189
162 190
162 193
162 194
162 198
163 165
163 170
163 178
163 191
163 192
164 166
164 171
164 172
164 175
164 179
164 183
164 187
164 188
164 189
164 190
164 193
164 194
164 198
165 170
165 178
165 191
165 192
166 171
166 172
166 175
166 183
166 187
166 188
166 189
166 190
166 193
166 194
166 198
167 168
167 169
167 173
167 174
167 177
167 180
167 195
167 197
167 199
168 169
168 173
168 174
168 177
168 180
168 195
168 197
168 199
169 173
169 197
169 199
171 172
171 178
171 184
171 187
171 191
171 192
171 200
172 187
172 195
172 196
172 201
173 197
173 199
174 176
174 177
174 179
174 180
174 181
174 182
174 187
174 195
174 196
175 176
175 178
175 183
175 184
175 185
175 186
175 188
175 189
175 190
175 193
175 194
175 198
176 177
176 179
176 180
176 181
176 182
176 187
176 188
176 189
176 195
176 196
176 199
177 179
177 180
177 181
177 182
177 187
177 195
177 196
178 183
178 184
178 185
178 186
178 191
178 192
178 200
179 180
179 181
179 182
179 187
179 190
179 194
179 195
179 196
179 199
180 181
180 182
180 187
180 195
180 196
181 182
181 187
181 195
181 196
182 187
182 195
182 196
182 199
183 184
183 185
183 186
183 188
183 189
183 190
183 193
183 194
183 198
184 185
184 186
184 191
184 192
184 200
185 186
185 197
185 199
187 195
187 196
188 189
188 190
188 193
188 194
188 198
189 190
189 193
189 194
189 198
190 193
190 194
190 198
191 192
191 200
192 200
193 194
193 198
194 198
195 196
195 201
196 201
197 199
0
1
2 3
4
5 6
7 8
9
10 11
12
13
14
15
16
17 18
19 20
21
22 23
24
25
26
27
28
29 30
31
32
33 34
35 36
37 38
39
40
41 42
43
44 45
46 47
48 49
50 51
52
53
54 55
56
57
58
59
60 61
62 63
64
65
66 67
68
69
70 71
72
73 74
75 76
77
78 79
80 81
82
83
84 85
86 87
88
89 90
91
92
93
94
95 96
97 98
99
100
101
102
103
104 105
106
107
108
109 110
111
112
113
114 115
116 117
118
119 120
121
122
123
124
125
126 127
128
129 130
131
132 133
134
135
136
137 138
139
140 141
142 143
144 145
146
147 148
149
150
151
152
153
154
155 156
157
158
159 160
161
162 163
164 165
166
167
168
169
170 171
172 173
174 175
176 177
178 179
180
181
182 183
184
185
186 187
188
189
190 191
192 193
194
195
196 197
198 199
200
201
